N=30;
start=[|
30, 24, 0, 0, 0, 7, 0, 17, 0, 27, 23, 3, 6, 2, 10, 18, 0, 0, 29, 13, 0, 0, 26, 11, 0, 9, 0, 0, 1, 21|
13, 0, 0, 22, 3, 10, 18, 24, 0, 30, 0, 25, 16, 19, 14, 11, 0, 0, 21, 1, 0, 0, 0, 9, 0, 6, 0, 17, 27, 0|
0, 30, 11, 28, 16, 0, 25, 0, 22, 0, 0, 0, 12, 0, 19, 5, 0, 0, 0, 0, 20, 18, 17, 2, 8, 3, 0, 9, 0, 6|
0, 6, 24, 0, 0, 17, 5, 0, 26, 3, 25, 2, 21, 0, 0, 0, 27, 0, 0, 29, 28, 0, 10, 0, 0, 11, 16, 7, 18, 0|
7, 14, 10, 27, 0, 1, 15, 0, 0, 17, 0, 13, 0, 6, 29, 0, 3, 0, 8, 20, 0, 21, 30, 0, 0, 0, 26, 18, 9, 0|
0, 16, 0, 0, 0, 0, 0, 0, 11, 15, 2, 26, 29, 25, 5, 0, 0, 7, 20, 17, 9, 10, 0, 0, 19, 0, 13, 28, 0, 12|
0, 0, 0, 0, 0, 16, 29, 6, 14, 0, 0, 15, 8, 0, 24, 28, 0, 0, 13, 22, 7, 0, 0, 12, 9, 17, 0, 25, 19, 23|
0, 23, 0, 12, 11, 0, 0, 0, 10, 0, 14, 20, 0, 13, 17, 9, 16, 6, 0, 0, 18, 1, 0, 7, 0, 0, 8, 0, 26, 19|
1, 0, 0, 14, 29, 0, 0, 15, 4, 0, 17, 0, 25, 3, 22, 12, 0, 10, 0, 0, 21, 0, 0, 24, 20, 0, 23, 30, 6, 26|
16, 28, 0, 7, 14, 0, 11, 13, 15, 25, 6, 5, 26, 20, 0, 0, 0, 27, 0, 0, 0, 0, 8, 23, 10, 0, 0, 0, 29, 0|
23, 17, 9, 5, 22, 19, 21, 0, 0, 0, 0, 18, 0, 16, 27, 0, 15, 12, 0, 26, 13, 3, 0, 28, 0, 0, 7, 0, 11, 0|
20, 0, 8, 0, 30, 5, 24, 0, 7, 28, 0, 0, 0, 0, 18, 17, 0, 0, 3, 0, 14, 0, 25, 0, 15, 19, 11, 10, 23, 9|
9, 25, 20, 0, 0, 8, 0, 0, 2, 0, 0, 0, 5, 0, 3, 0, 23, 1, 7, 0, 0, 22, 24, 0, 26, 30, 27, 12, 0, 11|
8, 15, 21, 13, 0, 6, 0, 19, 16, 10, 0, 23, 0, 4, 7, 0, 29, 26, 0, 0, 0, 0, 0, 1, 0, 20, 0, 5, 30, 3|
0, 26, 5, 29, 13, 0, 0, 7, 21, 9, 0, 0, 24, 0, 0, 0, 20, 19, 16, 0, 10, 27, 0, 8, 0, 28, 14, 0, 12, 25|
0, 4, 7, 0, 24, 26, 8, 9, 13, 18, 10, 29, 22, 27, 0, 23, 0, 0, 0, 0, 1, 0, 0, 20, 0, 25, 21, 2, 0, 0|
12, 0, 14, 0, 7, 0, 0, 0, 0, 24, 15, 0, 18, 17, 0, 19, 26, 30, 22, 9, 2, 25, 28, 0, 16, 0, 3, 0, 0, 27|
11, 0, 0, 19, 17, 0, 16, 23, 3, 0, 0, 12, 0, 14, 8, 15, 24, 13, 0, 0, 0, 28, 20, 18, 0, 0, 6, 1, 0, 0|
0, 9, 0, 1, 0, 21, 14, 0, 0, 0, 0, 0, 30, 28, 11, 20, 7, 23, 0, 24, 3, 13, 19, 0, 29, 8, 12, 0, 16, 0|
0, 0, 19, 26, 0, 0, 27, 5, 18, 0, 9, 0, 2, 0, 0, 7, 22, 0, 17, 11, 0, 8, 3, 0, 0, 23, 20, 14, 0, 4|
14, 0, 0, 18, 0, 2, 26, 8, 25, 5, 29, 10, 0, 0, 0, 6, 13, 0, 9, 0, 4, 7, 11, 0, 17, 0, 1, 0, 0, 0|
6, 1, 12, 0, 28, 3, 0, 30, 0, 0, 18, 0, 0, 29, 23, 25, 0, 4, 2, 16, 0, 0, 21, 14, 27, 0, 0, 0, 22, 5|
0, 11, 23, 24, 5, 0, 0, 29, 0, 0, 0, 7, 13, 9, 0, 0, 25, 0, 28, 19, 0, 16, 1, 17, 3, 0, 0, 21, 20, 2|
0, 7, 29, 0, 10, 0, 30, 0, 6, 23, 27, 0, 28, 24, 13, 0, 17, 9, 19, 25, 0, 5, 16, 4, 0, 0, 0, 0, 0, 18|
5, 0, 0, 11, 8, 30, 20, 0, 28, 13, 1, 0, 3, 0, 12, 0, 9, 0, 27, 6, 22, 0, 29, 16, 25, 0, 0, 0, 0, 0|
29, 12, 6, 20, 9, 0, 0, 22, 19, 0, 7, 0, 0, 0, 0, 0, 4, 3, 0, 27, 30, 11, 5, 0, 13, 26, 0, 15, 0, 0|
0, 0, 22, 9, 18, 12, 0, 2, 0, 0, 20, 14, 0, 8, 0, 0, 1, 5, 26, 30, 11, 6, 0, 0, 23, 24, 0, 4, 0, 0|
0, 0, 16, 0, 19, 4, 28, 27, 0, 14, 30, 0, 0, 0, 0, 21, 0, 15, 5, 3, 25, 26, 0, 29, 6, 2, 0, 0, 17, 24|
22, 19, 0, 0, 0, 29, 23, 12, 0, 1, 0, 17, 14, 30, 21, 26, 0, 8, 0, 0, 0, 20, 0, 0, 18, 15, 10, 0, 7, 28|
27, 0, 26, 3, 0, 9, 0, 28, 0, 16, 21, 24, 0, 0, 0, 4, 10, 0, 0, 0, 5, 0, 13, 15, 0, 12, 2, 29, 8, 0|];
